58 759
1 2 3 7 8 12 13 14 15 18 22 23 24 27 28 30 37 38 39 40 41 42 43 44 49 53 54 56 57
0 3 4 7 10 11 15 22 26 27 28 32 34 35 38 39 42 44 52 54
0 6 9 10 11 13 14 15 18 19 22 23 27 29 32 33 35 36 37 39 42 44 45 52 55
0 1 6 7 10 19 22 27 28 29 31 33 35 37 38 39 44 46 47 48 53 54 55 57
1 9 12 14 16 17 20 22 23 24 25 26 30 31 32 34 37 40 41 43 45 46 49 50 56
7 9 15 21 24 26 27 29 31 32 33 35 38 39 40 41 43 45 46 48 52 54 55
2 3 7 11 12 14 16 17 18 21 23 24 28 29 30 31 37 38 39 43 45 46 48 51 52 54
0 1 3 5 6 8 9 12 13 14 19 21 22 24 27 28 29 33 36 37 39 42 48 52 53 54 55
0 7 9 10 11 12 13 16 17 18 19 20 21 22 24 28 30 31 34 36 38 39 40 42 46 47 50 51 52 53 55 56 57
2 4 5 7 8 11 12 13 14 16 17 18 19 20 21 24 28 30 31 33 38 42 43 44 45 48 49 52 54 55 57
1 2 3 8 12 17 26 28 29 37 39 43 44 45 48 51 52 54 57
1 2 6 8 9 13 15 16 24 26 28 29 30 31 36 39 40 44 45 47 49 50 51 52 54
0 4 6 7 8 9 10 21 22 24 27 30 34 35 36 37 41 42 44 45 47 48 49 50 51
0 2 7 8 9 11 15 16 17 21 24 25 26 27 33 36 37 39 40 42 43 44 46 48 50 56 57
0 2 4 6 7 9 20 21 24 25 27 28 29 32 34 35 38 39 40 42 45 48 50 53 55 56
0 1 2 5 11 13 19 22 23 25 26 29 31 32 37 39 40 44 48 49 54 55
4 6 8 9 11 13 17 21 24 25 30 33 34 36 41 44 45 47 49 50 51 53 54 56
4 6 8 9 10 13 16 18 19 25 26 29 30 32 35 38 41 50 54 56 57
0 2 6 8 9 17 21 22 24 25 27 30 34 36 37 38 41 44 45 47 49 52 55 56 57
2 3 7 8 9 15 17 21 24 26 27 38 40 41 43 47 48 50 53 54 55
4 8 9 14 22 23 24 26 29 30 31 32 35 36 37 39 41 42 44 47 48 51 54 55 56
5 6 7 8 9 12 13 14 16 18 19 25 31 32 33 36 37 39 40 43 45 46 52 53 54 57
0 1 2 3 4 7 8 12 15 18 20 23 24 25 30 31 32 36 37 38 39 40 42 44 45 46 49 51 53 54
0 2 4 6 15 20 22 28 30 31 32 33 34 35 37 38 39 40 42 43 44 54
0 4 5 6 7 8 9 11 12 13 14 16 18 19 20 22 26 28 29 30 31 33 35 36 37 38 43 46 49 51 54 57
4 13 14 15 16 17 18 21 22 29 31 32 35 36 37 40 44 47 48 49 51 52 57
1 4 5 10 11 13 15 17 19 20 24 27 30 34 35 38 39 42 43 44 45 50 51 52
0 1 2 3 5 7 12 13 14 18 19 26 28 29 32 33 39 40 41 43 44 45 46 47 49 50 55 56 57
0 1 3 6 7 8 9 10 11 14 23 24 27 29 30 31 33 34 36 38 44 45 47 48 49 50 53 54 57
2 3 5 6 7 10 11 14 15 17 20 24 25 27 28 33 34 37 39 42 43 44 46 47 48 49 51 52 53 54 55 56 57
0 4 6 8 9 11 12 16 17 18 20 22 23 24 26 28 33 38 42 43 44 46 47 49 51 52 54
3 4 5 6 8 9 11 15 20 21 22 23 24 25 28 34 35 36 37 38 39 40 45 46 47 49 50 51 55
1 2 4 5 14 15 17 20 21 22 23 25 27 34 37 38 39 44 45 48 57
2 3 5 7 9 13 16 21 23 24 27 28 29 30 34 35 37 39 41 44 45 47 48 49 54
1 4 8 12 14 16 18 23 26 28 29 31 32 33 37 40 42 43 44 47 49 51 55 56
1 2 3 5 12 14 17 20 23 24 25 26 31 33 36 37 40 46 47 52 53 54 55 56
2 7 8 11 12 13 16 18 20 21 22 24 25 28 31 35 40 42 43 45 49 51 56
0 2 3 4 6 7 10 12 13 15 18 20 21 22 23 24 25 29 31 32 33 34 35 38 40 41 42 43 44 46 47 48 49 51 52 53 54 56 57
0 1 3 5 6 8 9 14 17 18 19 22 23 24 26 28 30 31 32 37 41 43 47 48 49 53 54 57
0 1 2 3 5 6 7 8 10 11 13 14 15 20 21 22 23 26 27 29 31 32 33 40 42 43 44 46 47 49 50 54 55
0 4 5 8 11 13 14 15 19 21 22 23 25 27 31 34 35 36 37 39 41 42 45 46 49 52 56
0 4 5 12 16 17 18 19 20 27 33 37 38 40 42 43 44 46 48 49 52 53 55 57
0 1 2 7 8 9 12 13 14 20 22 23 26 29 30 34 36 37 39 40 41 43 46 47 48 49 51 52 55 57
0 4 5 6 9 10 13 19 21 23 24 26 27 29 30 34 36 37 38 39 41 42 44 48 54 55 56 57
0 1 2 3 9 10 11 12 13 15 16 18 20 22 23 25 26 27 28 29 30 32 33 34 37 39 41 43 47 48 49 51 54 56
2 4 5 6 9 10 11 12 14 16 18 21 22 26 27 28 31 32 33 36 40 47 49 53 56 57
3 4 5 6 8 13 21 22 24 27 29 30 31 35 37 39 40 41 42 52 53 54 56
3 8 11 12 16 18 19 20 25 27 28 29 30 31 33 34 35 37 38 39 42 44 45 48 49 50 54 55 56
3 5 6 7 9 10 12 13 14 15 19 20 25 28 29 32 33 37 38 41 42 43 44 47 50 51 52 54 55
0 4 9 11 12 15 16 18 22 24 25 27 28 29 30 31 33 34 36 37 38 39 40 41 42 44 45 47 53 57
4 8 11 12 13 14 16 17 19 26 27 28 31 39 47 48 51 55
6 8 10 11 12 16 20 22 24 25 26 29 30 31 34 36 37 42 44 48 50 52 53 54 57
1 2 5 6 7 8 9 10 11 18 21 25 26 29 30 35 37 40 41 42 46 48 51 57
0 3 7 8 14 16 19 21 22 28 29 35 37 38 41 45 46 49 51 55 56
0 1 3 5 6 7 9 10 11 15 16 17 19 20 21 22 23 24 28 29 30 33 35 37 38 39 43 44 46 47 48 51 55
2 3 5 7 8 9 14 15 18 19 20 27 29 31 34 35 39 41 42 43 47 48 50 53 54
0 4 8 13 14 16 17 18 20 27 29 34 35 36 37 40 43 44 45 46 47 53 57
0 3 8 9 10 13 17 18 21 24 25 27 28 29 32 37 38 41 42 43 45 49 51 52 56
